100 500 10 200 10 100
39 147
71 41
30 32
75 149
65 166
27 124
89 172
53 80
93 96
69 80
21 118
77 176
63 80
88 111
91 136
19 124
49 46
12 152
74 55
84 10
38 101
78 139
28 110
61 200
82 51
30 10
20 170
86 115
92 175
88 70
41 29
64 14
94 183
12 146
96 122
23 92
86 113
66 106
38 61
42 62
64 28
66 60
22 81
100 81
79 35
48 199
47 190
16 109
31 12
25 53
95 22
30 158
45 178
65 182
66 12
46 152
21 139
93 62
53 20
53 108
42 117
58 89
56 131
73 100
73 87
73 100
79 100
28 68
79 155
50 149
42 127
27 31
88 145
40 97
28 38
79 191
37 102
92 74
53 112
76 200
15 129
64 131
95 191
99 161
81 83
33 145
88 52
65 87
77 72
31 164
41 192
71 67
15 56
13 159
80 139
55 190
80 101
70 129
16 175
63 57
